(set-option :produce-unsat-cores true) ; enable generation of unsat cores
(set-option :produce-models true) ; enable model generation
(set-logic ALL)
(declare-sort var2959 0)
(declare-sort var1623 0)
(declare-sort var2220 0)
(declare-sort var2909 0)
(declare-sort void 0)
(declare-sort Iterator 0)
(declare-sort ClassObject 0)
(declare-fun op/699198229 (var2959) var2220)
(declare-fun ordinal/-291641772 (var2909) Int)
(declare-fun cast-from-var2220-to-var2909 (var2220) var2909)
(define-fun append/672562846 ((s String) (tail String)) String (str.++ s tail))
(declare-const null-var2959 var2959)
(declare-const null-String String)
(declare-const var1623-$SwitchMap$com$google$re2j$Regexp$Op (Array Int Int))
(declare-const var150 var2959) ; Statement: r0 := @this: com.google.javascript.jscomp.jarjar.com.google.re2j.Regexp 
(assert (not (= var150 null-var2959)))
(declare-const var2172 String) ; Statement: r4 := @parameter0: java.lang.StringBuilder 
(assert (not (= var2172 null-String)))
(define-const var1728 (Array Int Int) var1623-$SwitchMap$com$google$re2j$Regexp$Op) ; Statement: $r2 = <com.google.javascript.jscomp.jarjar.com.google.re2j.Regexp$1: int[] $SwitchMap$com$google$re2j$Regexp$Op> 
(define-const var1131 var2220 (op/699198229 var150)) ; Statement: $r1 = r0.<com.google.javascript.jscomp.jarjar.com.google.re2j.Regexp: com.google.javascript.jscomp.jarjar.com.google.re2j.Regexp$Op op> 
(assert true)
(define-const var2954 Int (ordinal/-291641772 (cast-from-var2220-to-var2909 var1131))) ; Statement: $i0 = virtualinvoke $r1.<com.google.javascript.jscomp.jarjar.com.google.re2j.Regexp$Op: int ordinal()>() 
(define-const var2592 Int (select var1728 var2954)) ; Statement: $i1 = $r2[$i0] 
 ; Statement: tableswitch($i1) {     case 1: goto $r27 = r0.<com.google.javascript.jscomp.jarjar.com.google.re2j.Regexp: com.google.javascript.jscomp.jarjar.com.google.re2j.Regexp[] subs>;     case 2: goto $r27 = r0.<com.google.javascript.jscomp.jarjar.com.google.re2j.Regexp: com.google.javascript.jscomp.jarjar.com.google.re2j.Regexp[] subs>;     case 3: goto $r27 = r0.<com.google.javascript.jscomp.jarjar.com.google.re2j.Regexp: com.google.javascript.jscomp.jarjar.com.google.re2j.Regexp[] subs>;     case 4: goto $r27 = r0.<com.google.javascript.jscomp.jarjar.com.google.re2j.Regexp: com.google.javascript.jscomp.jarjar.com.google.re2j.Regexp[] subs>;     case 5: goto virtualinvoke r4.<java.lang.StringBuilder: java.lang.StringBuilder append(java.lang.String)>("[^\\x00-\\x{10FFFF}]");     case 6: goto virtualinvoke r4.<java.lang.StringBuilder: java.lang.StringBuilder append(java.lang.String)>("(?:)");     case 7: goto r38 = r0.<com.google.javascript.jscomp.jarjar.com.google.re2j.Regexp: com.google.javascript.jscomp.jarjar.com.google.re2j.Regexp[] subs>;     case 8: goto r40 = "";     case 9: goto $i17 = r0.<com.google.javascript.jscomp.jarjar.com.google.re2j.Regexp: int flags>;     case 10: goto virtualinvoke r4.<java.lang.StringBuilder: java.lang.StringBuilder append(java.lang.String)>("(?-s:.)");     case 11: goto virtualinvoke r4.<java.lang.StringBuilder: java.lang.StringBuilder append(java.lang.String)>("(?s:.)");     case 12: goto $r14 = r0.<com.google.javascript.jscomp.jarjar.com.google.re2j.Regexp: java.lang.String name>;     case 13: goto virtualinvoke r4.<java.lang.StringBuilder: java.lang.StringBuilder append(java.lang.String)>("\\A");     case 14: goto $i15 = r0.<com.google.javascript.jscomp.jarjar.com.google.re2j.Regexp: int flags>;     case 15: goto virtualinvoke r4.<java.lang.StringBuilder: java.lang.StringBuilder append(char)>(94);     case 16: goto virtualinvoke r4.<java.lang.StringBuilder: java.lang.StringBuilder append(char)>(36);     case 17: goto virtualinvoke r4.<java.lang.StringBuilder: java.lang.StringBuilder append(java.lang.String)>("\\b");     case 18: goto virtualinvoke r4.<java.lang.StringBuilder: java.lang.StringBuilder append(java.lang.String)>("\\B");     case 19: goto $r3 = r0.<com.google.javascript.jscomp.jarjar.com.google.re2j.Regexp: int[] runes>;     default: goto $r34 = r0.<com.google.javascript.jscomp.jarjar.com.google.re2j.Regexp: com.google.javascript.jscomp.jarjar.com.google.re2j.Regexp$Op op>; } 
(assert (and (= var2592 5) (and (not (= var2592 4)) (and (not (= var2592 3)) (and (not (= var2592 2)) (and (not (= var2592 1)) true)))))) ; Intersect: Cond: $i1 == 5  and Intersect: Negate: Cond: $i1 == 4   and Intersect: Negate: Cond: $i1 == 3   and Intersect: Negate: Cond: $i1 == 2   and Intersect: Negate: Cond: $i1 == 1   and Non Conditional     
(assert true)
;(assert (append/672562846 var2172 "[^\u005cx00-\u005cx{10FFFF}]")) ; Statement: virtualinvoke r4.<java.lang.StringBuilder: java.lang.StringBuilder append(java.lang.String)>("[^\\x00-\\x{10FFFF}]") 
(declare-const var2172!1 String)
(assert (= var2172!1 (str.++ var2172 "[^\u005cx00-\u005cx{10FFFF}]")))
 ; Statement: goto [?= return] 
(assert true) ; Non Conditional
 ; Statement: return 
(check-sat)
(get-model)
(get-unsat-core)
; {op/699198229=([com.google.javascript.jscomp.jarjar.com.google.re2j.Regexp], com.google.javascript.jscomp.jarjar.com.google.re2j.Regexp$Op), ordinal/-291641772=([java.lang.Enum], int), cast-from-var2220-to-var2909=([com.google.javascript.jscomp.jarjar.com.google.re2j.Regexp$Op], java.lang.Enum), append/672562846=([java.lang.StringBuilder, java.lang.String], java.lang.StringBuilder)}
; {var2959=com.google.javascript.jscomp.jarjar.com.google.re2j.Regexp, var150=r0, var2172=r4, var1623=com.google.javascript.jscomp.jarjar.com.google.re2j.Regexp$1, var1728=$r2, var2220=com.google.javascript.jscomp.jarjar.com.google.re2j.Regexp$Op, var1131=$r1, var2909=java.lang.Enum, var2954=$i0, var2592=$i1}
; {com.google.javascript.jscomp.jarjar.com.google.re2j.Regexp=var2959, r0=var150, r4=var2172, com.google.javascript.jscomp.jarjar.com.google.re2j.Regexp$1=var1623, $r2=var1728, com.google.javascript.jscomp.jarjar.com.google.re2j.Regexp$Op=var2220, $r1=var1131, java.lang.Enum=var2909, $i0=var2954, $i1=var2592}
;seq <java.lang.StringBuilder: java.lang.StringBuilder append(java.lang.String)>
;cnt {"<java.lang.StringBuilder: java.lang.StringBuilder append(java.lang.String)>": 1}
;stmts r0 := @this: com.google.javascript.jscomp.jarjar.com.google.re2j.Regexp;	r4 := @parameter0: java.lang.StringBuilder;	$r2 = <com.google.javascript.jscomp.jarjar.com.google.re2j.Regexp$1: int[] $SwitchMap$com$google$re2j$Regexp$Op>;	$r1 = r0.<com.google.javascript.jscomp.jarjar.com.google.re2j.Regexp: com.google.javascript.jscomp.jarjar.com.google.re2j.Regexp$Op op>;	$i0 = virtualinvoke $r1.<com.google.javascript.jscomp.jarjar.com.google.re2j.Regexp$Op: int ordinal()>();	$i1 = $r2[$i0];	tableswitch($i1) {     case 1: goto $r27 = r0.<com.google.javascript.jscomp.jarjar.com.google.re2j.Regexp: com.google.javascript.jscomp.jarjar.com.google.re2j.Regexp[] subs>;     case 2: goto $r27 = r0.<com.google.javascript.jscomp.jarjar.com.google.re2j.Regexp: com.google.javascript.jscomp.jarjar.com.google.re2j.Regexp[] subs>;     case 3: goto $r27 = r0.<com.google.javascript.jscomp.jarjar.com.google.re2j.Regexp: com.google.javascript.jscomp.jarjar.com.google.re2j.Regexp[] subs>;     case 4: goto $r27 = r0.<com.google.javascript.jscomp.jarjar.com.google.re2j.Regexp: com.google.javascript.jscomp.jarjar.com.google.re2j.Regexp[] subs>;     case 5: goto virtualinvoke r4.<java.lang.StringBuilder: java.lang.StringBuilder append(java.lang.String)>("[^\\x00-\\x{10FFFF}]");     case 6: goto virtualinvoke r4.<java.lang.StringBuilder: java.lang.StringBuilder append(java.lang.String)>("(?:)");     case 7: goto r38 = r0.<com.google.javascript.jscomp.jarjar.com.google.re2j.Regexp: com.google.javascript.jscomp.jarjar.com.google.re2j.Regexp[] subs>;     case 8: goto r40 = "";     case 9: goto $i17 = r0.<com.google.javascript.jscomp.jarjar.com.google.re2j.Regexp: int flags>;     case 10: goto virtualinvoke r4.<java.lang.StringBuilder: java.lang.StringBuilder append(java.lang.String)>("(?-s:.)");     case 11: goto virtualinvoke r4.<java.lang.StringBuilder: java.lang.StringBuilder append(java.lang.String)>("(?s:.)");     case 12: goto $r14 = r0.<com.google.javascript.jscomp.jarjar.com.google.re2j.Regexp: java.lang.String name>;     case 13: goto virtualinvoke r4.<java.lang.StringBuilder: java.lang.StringBuilder append(java.lang.String)>("\\A");     case 14: goto $i15 = r0.<com.google.javascript.jscomp.jarjar.com.google.re2j.Regexp: int flags>;     case 15: goto virtualinvoke r4.<java.lang.StringBuilder: java.lang.StringBuilder append(char)>(94);     case 16: goto virtualinvoke r4.<java.lang.StringBuilder: java.lang.StringBuilder append(char)>(36);     case 17: goto virtualinvoke r4.<java.lang.StringBuilder: java.lang.StringBuilder append(java.lang.String)>("\\b");     case 18: goto virtualinvoke r4.<java.lang.StringBuilder: java.lang.StringBuilder append(java.lang.String)>("\\B");     case 19: goto $r3 = r0.<com.google.javascript.jscomp.jarjar.com.google.re2j.Regexp: int[] runes>;     default: goto $r34 = r0.<com.google.javascript.jscomp.jarjar.com.google.re2j.Regexp: com.google.javascript.jscomp.jarjar.com.google.re2j.Regexp$Op op>; };	virtualinvoke r4.<java.lang.StringBuilder: java.lang.StringBuilder append(java.lang.String)>("[^\\x00-\\x{10FFFF}]");	goto [?= return];	return
;block_num 3